
Gurobi 9.5.1 (linux64) logging started Tue Jun 14 12:50:23 2022

Set parameter LogFile to value "../results/logs/log_web-hudong.e_5_250_2022_06_14_12_49.log"
Gurobi Optimizer version 9.5.1 build v9.5.1rc2 (linux64)
Thread count: 8 physical cores, 8 logical processors, using up to 8 threads
Optimize a model with 3949311 rows, 3949310 columns and 65612148 nonzeros
Model fingerprint: 0x51b58ce3
Variable types: 0 continuous, 3949310 integer (3949310 binary)
Coefficient statistics:
  Matrix range     [1e+00, 5e+00]
  Objective range  [1e+00, 1e+00]
  Bounds range     [1e+00, 1e+00]
  RHS range        [1e+00, 2e+02]
Found heuristic solution: objective -0.0000000
Presolve removed 0 rows and 0 columns (presolve time = 9s) ...
Presolve removed 0 rows and 0 columns (presolve time = 12s) ...
Presolve removed 0 rows and 0 columns (presolve time = 18s) ...
Presolve removed 0 rows and 545743 columns (presolve time = 23s) ...
Presolve removed 1091486 rows and 545743 columns (presolve time = 26s) ...
Presolve removed 1091486 rows and 563225 columns (presolve time = 32s) ...
Presolve removed 1094203 rows and 563225 columns (presolve time = 36s) ...
Presolve removed 1094203 rows and 565407 columns (presolve time = 43s) ...
Presolve removed 1094228 rows and 565407 columns (presolve time = 46s) ...
Presolve removed 1094229 rows and 565431 columns (presolve time = 55s) ...
Presolve removed 1094229 rows and 818314 columns (presolve time = 63s) ...
Presolve removed 1094229 rows and 818314 columns (presolve time = 68s) ...
Presolve removed 1094230 rows and 818315 columns (presolve time = 74s) ...
Presolve removed 1094230 rows and 818315 columns (presolve time = 80s) ...
Presolve removed 1094230 rows and 818315 columns (presolve time = 85s) ...
Presolve removed 1094230 rows and 818315 columns (presolve time = 90s) ...
Presolve removed 1094230 rows and 818315 columns (presolve time = 95s) ...
Presolve removed 1094230 rows and 818315 columns (presolve time = 100s) ...
Presolve removed 1094230 rows and 818315 columns (presolve time = 105s) ...
Presolve removed 1094230 rows and 818315 columns (presolve time = 110s) ...
Presolve removed 1094230 rows and 818315 columns (presolve time = 115s) ...
Presolve removed 1094230 rows and 818315 columns (presolve time = 120s) ...
Presolve removed 1094230 rows and 818315 columns (presolve time = 125s) ...
Presolve removed 1094230 rows and 818315 columns (presolve time = 130s) ...
Presolve removed 1094230 rows and 818359 columns (presolve time = 135s) ...
Presolve removed 1094230 rows and 818406 columns (presolve time = 140s) ...
Presolve removed 1094230 rows and 818421 columns (presolve time = 151s) ...
Presolve removed 1094230 rows and 818421 columns (presolve time = 156s) ...
Presolve removed 1094230 rows and 818421 columns (presolve time = 162s) ...
Presolve removed 1094230 rows and 818421 columns (presolve time = 168s) ...
Presolve removed 1094230 rows and 818421 columns (presolve time = 170s) ...
Presolve removed 1094230 rows and 818421 columns (presolve time = 175s) ...
Presolve removed 1094230 rows and 1150531 columns (presolve time = 184s) ...
Presolve removed 1094230 rows and 1150531 columns (presolve time = 185s) ...
Presolve removed 1094230 rows and 1150531 columns (presolve time = 190s) ...
Presolve removed 1094230 rows and 1150531 columns (presolve time = 195s) ...
Presolve removed 1094230 rows and 1150531 columns (presolve time = 200s) ...
Presolve removed 1094230 rows and 1150531 columns (presolve time = 205s) ...
Presolve removed 1094230 rows and 1150531 columns (presolve time = 210s) ...
Presolve removed 1094230 rows and 1150531 columns (presolve time = 215s) ...
Presolve removed 1094230 rows and 1150531 columns (presolve time = 220s) ...
Presolve removed 1094230 rows and 1150531 columns (presolve time = 225s) ...
Presolve removed 1094230 rows and 1150531 columns (presolve time = 230s) ...
Presolve removed 1094230 rows and 1150531 columns (presolve time = 235s) ...
Presolve removed 1094230 rows and 1150531 columns (presolve time = 240s) ...
Presolve removed 1758465 rows and 1150531 columns (presolve time = 246s) ...
Presolve removed 1758465 rows and 1150531 columns (presolve time = 252s) ...
Presolve removed 1758465 rows and 1150531 columns (presolve time = 256s) ...
Presolve removed 1758465 rows and 1150531 columns (presolve time = 263s) ...
Presolve removed 1758465 rows and 1193495 columns (presolve time = 271s) ...
Presolve removed 1758465 rows and 1193495 columns (presolve time = 276s) ...
Presolve removed 1758465 rows and 1193495 columns (presolve time = 284s) ...
Presolve removed 1758465 rows and 1193495 columns (presolve time = 288s) ...
Presolve removed 1758465 rows and 1193495 columns (presolve time = 294s) ...
Presolve removed 1758465 rows and 1193495 columns (presolve time = 300s) ...
Presolve removed 1758465 rows and 1193495 columns (presolve time = 300s) ...
Presolve removed 1758465 rows and 1193495 columns (presolve time = 305s) ...
Presolve removed 1758465 rows and 1193495 columns (presolve time = 313s) ...
Presolve removed 1758465 rows and 1193495 columns (presolve time = 315s) ...
Presolve removed 1758465 rows and 1193495 columns (presolve time = 320s) ...
Presolve removed 1758465 rows and 1193531 columns (presolve time = 325s) ...
Presolve removed 1758560 rows and 1193591 columns (presolve time = 330s) ...
Presolve removed 1758560 rows and 1193591 columns (presolve time = 335s) ...
Presolve removed 1758560 rows and 1193591 columns (presolve time = 342s) ...
Presolve removed 1758560 rows and 1193591 columns (presolve time = 350s) ...
Presolve removed 1758560 rows and 1193591 columns (presolve time = 354s) ...
Presolve removed 1758560 rows and 1193591 columns (presolve time = 363s) ...
Presolve removed 1758560 rows and 1193591 columns (presolve time = 366s) ...
Presolve removed 1758560 rows and 1193591 columns (presolve time = 372s) ...
Presolve removed 1758560 rows and 1193591 columns (presolve time = 378s) ...
Presolve removed 1758560 rows and 1193591 columns (presolve time = 380s) ...
Presolve removed 1758560 rows and 1193591 columns (presolve time = 391s) ...
Presolve removed 1758560 rows and 1193591 columns (presolve time = 395s) ...
Presolve removed 1758560 rows and 1193591 columns (presolve time = 401s) ...
Presolve removed 1758560 rows and 1193591 columns (presolve time = 409s) ...
Presolve removed 1758560 rows and 1193591 columns (presolve time = 410s) ...
Presolve removed 1758560 rows and 1193591 columns (presolve time = 415s) ...
Presolve removed 1758560 rows and 1193591 columns (presolve time = 420s) ...
Presolve removed 1758560 rows and 1193591 columns (presolve time = 425s) ...
Presolve removed 1758560 rows and 1193591 columns (presolve time = 433s) ...
Presolve removed 1758560 rows and 1193591 columns (presolve time = 435s) ...
Presolve removed 1758560 rows and 1193591 columns (presolve time = 440s) ...
Presolve removed 1758560 rows and 1193591 columns (presolve time = 447s) ...
Presolve removed 1758560 rows and 1193591 columns (presolve time = 458s) ...
Presolve removed 1758675 rows and 1193706 columns (presolve time = 460s) ...
Presolve removed 1758675 rows and 1193706 columns (presolve time = 467s) ...
Presolve removed 1758551 rows and 1193582 columns
Presolve time: 467.18s
Presolved: 2190760 rows, 2755728 columns, 56664737 nonzeros
Variable types: 0 continuous, 2755728 integer (2707706 binary)

Deterministic concurrent LP optimizer: primal simplex, dual simplex, and barrier
Showing barrier log only...

